10J3M/DAT/10J3MULA-10.dat
10 3
30.5131 931.0493
12.9049 166.5364
13.1286 172.3601
29.1237 848.1899
31.4554 989.4422
30.0322 901.933
33.7537 1139.3123
10.9323 119.5152
20.696 428.3244
27.0182 729.9831
2142.2153