10J3M/SOL/10J3MULA-10.sol
solution status: optimal solution found
objective value:                              79.0355
x#1#2                               0.233419156103128 	(obj:0)
x#1#3                               0.766580843896872 	(obj:0)
x#2#1                                               1 	(obj:0)
x#3#1                                               1 	(obj:0)
x#4#1                                               1 	(obj:0)
x#5#1                               0.620869969678914 	(obj:0)
x#5#3                               0.379130030321086 	(obj:0)
x#6#3                                               1 	(obj:0)
x#7#2                                               1 	(obj:0)
x#8#2                               0.242459844697256 	(obj:0)
x#8#3                               0.757540155302744 	(obj:0)
x#9#2                                               1 	(obj:0)
x#10#1                              0.887721124511944 	(obj:0)
x#10#2                              0.112278875488056 	(obj:0)
z                                             79.0355 	(obj:1)
